rectOffsets = 
    [|0,0,3,3|0,0,3,3|0,0,3,4|0,0,4,3|0,0,3,5|0,0,5,3|0,0,3,6|0,0,6,3|0,0,3,7|0,0,7,3|0,0,3,8|0,0,8,3|0,0,3,9|0,0,9,3|0,0,3,10|0,0,10,3|0,0,3,11|0,0,11,3|0,0,3,15|0,0,15,3|0,0,3,18|0,0,18,3|0,0,3,20|0,0,20,3|0,0,4,3|0,0,3,4|0,0,4,4|0,0,4,4|0,0,4,5|0,0,5,4|0,0,4,6|0,0,6,4|0,0,4,7|0,0,7,4|0,0,4,9|0,0,9,4|0,0,4,15|0,0,15,4|0,0,4,18|0,0,18,4|0,0,4,20|0,0,20,4|0,0,5,4|0,0,4,5|0,0,5,8|0,0,8,5|0,0,5,17|0,0,17,5|];

shape = array1d(1..48, [{1}, {2}, {3}, {4}, {5}, {6}, {7}, {8}, {9}, {10},
    {11}, {12}, {13}, {14}, {15}, {16}, {17}, {18}, {19}, {20}, {21},
    {22}, {23}, {24}, {25}, {26}, {27}, {28}, {29}, {30}, {31}, {32},
    {33}, {34}, {35}, {36}, {37}, {38}, {39}, {40}, {41}, {42}, {43},
    {44}, {45}, {46}, {47}, {48}]);

validshapes = array1d(1..24, [{1,2}, {3,4}, {5,6}, {7,8}, {9,10}, {11,12}, {13,14},
    {15,16}, {17,18}, {19,20}, {21,22}, {23,24}, {25,26}, {27,28},
    {29,30}, {31,32}, {33,34}, {35,36}, {37,38}, {39,40}, {41,42},
    {43,44}, {45,46}, {47,48}]);

dx = array1d(1..24, [3, 3, 3, 3, 3, 3, 3, 3, 3, 3, 3, 3, 4, 4, 4, 4, 4, 4,
    4, 4, 4, 5, 5, 5]);

dy = array1d(1..24, [3, 4, 5, 6, 7, 8, 9, 10, 11, 15, 18, 20, 3, 4, 5, 6,
    7, 9, 15, 18, 20, 4, 8, 17]);

w = 29;

n = 24;

o = 48;

